; benchmark generated from python API
(set-info :status unknown)
(declare-datatypes ((IntState 0)) (((Mk1 (val1 Int)) (Mk2 (val2 Int)))))
 (declare-fun c_main_~n~22 () Int)
(declare-fun c_main_~f1~22 () Int)
(declare-fun |c_main_#t~ret12| () Int)
(assert
 (let (($x167 (<= c_main_~n~22 2)))
 (let (($x36 (exists ((v_nnf_94_st IntState) (val!153 Int) )(exists ((v_nnf_95_st IntState) (val!154 Int) )(exists ((v_nnf_96_st IntState) (val!155 Int) )(let (($x167 (<= c_main_~n~22 2)))
 (let ((?x56 (val2 v_nnf_96_st)))
 (let ((?x59 (* 2 ?x56)))
 (let ((?x138 (val2 v_nnf_95_st)))
 (let ((?x166 (* 2 ?x138)))
 (let ((?x76 (val2 v_nnf_94_st)))
 (let ((?x129 (* 2 ?x76)))
 (let (($x160 (and (<= (+ c_main_~f1~22 ?x129 ?x166 ?x59 1) |c_main_#t~ret12|) (<= c_main_~f1~22 ?x76) (<= ?x56 ?x138) (<= ?x76 ?x56) $x167)))
 (let (($x52 (not (= v_nnf_96_st (Mk1 val!155)))))
 (let (($x74 (not (= v_nnf_95_st (Mk1 val!154)))))
 (let (($x145 (not (= v_nnf_94_st (Mk1 val!153)))))
 (and $x145 $x74 $x52 $x160)))))))))))))
 )
 )
 ))
 (let (($x152 (exists ((v_nnf_94 Int) )(exists ((v_nnf_95 Int) )(exists ((v_nnf_96 Int) )(let (($x167 (<= c_main_~n~22 2)))
 (let ((?x21 (* 2 v_nnf_96)))
 (let ((?x71 (* 2 v_nnf_95)))
 (let ((?x41 (* 2 v_nnf_94)))
 (and (<= (+ c_main_~f1~22 ?x41 ?x71 ?x21 1) |c_main_#t~ret12|) (<= c_main_~f1~22 v_nnf_94) (<= v_nnf_96 v_nnf_95) (<= v_nnf_94 v_nnf_96) $x167))))))
 )
 )
 ))
 (and $x152 (not (and $x36 $x167)))))))
(check-sat)
